668 290 10 480 1199
755 1966 3 857 977
1663 1559 2 751 920
506 2475 1 661 696
2063 810 1 719 738
990 2433 1 1069 1123
203 724 2 919 1031
408 2029 1 716 772
1287 2280 1 917 938
1001 59 1 925 1042
1693 1444 4 597 778
